proyfinal/src/viki/013/experimentInOfficeAgust.take6.output/f5798fe6-6d6f-4dde-af2d-5545f08006a3.als.out
Reading from standard input... Use '--help' for help.
============================[ Problem Statistics ]=============================
|                                                                             |
|  Number of variables:         87638                                         |
|  Number of clauses:          161767                                         |
|  Parse time:                   0.04 s                                       |
|                                                                             |
============================[ Search Statistics ]==============================
| Conflicts |          ORIGINAL         |          LEARNT          | Progress |
|           |    Vars  Clauses Literals |    Limit  Clauses Lit/Cl |          |
===============================================================================
|       100 |   63836   110388   275836 |    40475      100     11 | 27.159 % |
|       250 |   63836   110388   275836 |    44523      250     42 | 27.159 % |
|       475 |   63791   110355   275752 |    48975      470     33 | 27.211 % |
|       812 |   63791   110355   275752 |    53873      807     38 | 27.211 % |
|      1318 |   63681   109998   274872 |    59260     1284     52 | 27.336 % |
|      2077 |   63681   109772   274351 |    65186     2041     68 | 27.336 % |
|      3216 |   63642   109728   274261 |    71704     3174     74 | 27.381 % |
|      4924 |   63622   109494   273706 |    78875     4808     87 | 27.404 % |
|      7486 |   63507   109198   272963 |    86763     7364     90 | 27.535 % |
|     11330 |   52782   109052   272578 |    95439    11133    101 | 39.773 % |
|     17096 |   52094    74563   187716 |   104983    16031     95 | 40.558 % |
===============================================================================
restarts              : 76
conflicts             : 21217          (6220 /sec)
decisions             : 75696          (0.00 % random) (22192 /sec)
propagations          : 31220625       (9152871 /sec)
conflict literals     : 1873675        (46.09 % deleted)
Memory used           : 44.32 MB
CPU time              : 3.41102 s

INDETERMINATE
